50
1000
299
295
295
287
278
277
271
269
264
258
253
241
241
232
230
228
226
221
213
212
211
210
203
202
200
198
197
194
172
172
170
167
163
158
156
149
149
145
140
139
137
135
127
126
120
114
113
111
109
102
